N = 14;
H = 5;
T = 2;

avail = array3d(1..N, 1..H, 1..T, [2, 2, 3, 4, 10, 10, 5, 4, 1, 8, 8, 8, 5, 10, 1, 8, 4, 1, 0, 7, 7, 0, 3, 3, 1, 3, 2, 6, 2, 5, 0, 5, 7, 8, 7, 0, 2, 0, 10, 5, 0, 9, 8, 3, 5, 9, 8, 9, 0, 0, 1, 2, 7, 4, 9, 3, 2, 8, 5, 5, 6, 3, 9, 1, 2, 1, 8, 2, 5, 3, 10, 8, 3, 2, 3, 9, 0, 8, 5, 0, 5, 6, 10, 8, 5, 6, 6, 4, 0, 8, 0, 10, 4, 7, 5, 2, 2, 2, 2, 10, 6, 3, 4, 5, 3, 6, 10, 3, 5, 6, 4, 1, 6, 2, 9, 5, 9, 1, 2, 6, 0, 2, 9, 0, 3, 8, 4, 5, 2, 6, 3, 2, 1, 2, 1, 5, 4, 0, 3, 10]);

r = array2d(1..H, 1..T, [8, 3, 0, 2, 3, 3, 2, 8, 3, 3]);
